p cnf 245 2128
1 2 3 4 5 6 7 0
8 9 10 11 12 13 14 0
15 16 17 18 19 20 21 0
22 23 24 25 26 27 28 0
29 30 31 32 33 34 35 0
36 37 38 39 40 41 42 0
43 44 45 46 47 48 49 0
50 51 52 53 54 55 56 0
57 58 59 60 61 62 63 0
64 65 66 67 68 69 70 0
71 72 73 74 75 76 77 0
78 79 80 81 82 83 84 0
85 86 87 88 89 90 91 0
92 93 94 95 96 97 98 0
99 100 101 102 103 104 105 0
106 107 108 109 110 111 112 0
113 114 115 116 117 118 119 0
120 121 122 123 124 125 126 0
127 128 129 130 131 132 133 0
134 135 136 137 138 139 140 0
141 142 143 144 145 146 147 0
148 149 150 151 152 153 154 0
155 156 157 158 159 160 161 0
162 163 164 165 166 167 168 0
169 170 171 172 173 174 175 0
176 177 178 179 180 181 182 0
183 184 185 186 187 188 189 0
190 191 192 193 194 195 196 0
197 198 199 200 201 202 203 0
204 205 206 207 208 209 210 0
211 212 213 214 215 216 217 0
218 219 220 221 222 223 224 0
225 226 227 228 229 230 231 0
232 233 234 235 236 237 238 0
239 240 241 242 243 244 245 0
-1 -8 0
-2 -9 0
-3 -10 0
-4 -11 0
-5 -12 0
-6 -13 0
-7 -14 0
-1 -36 0
-2 -37 0
-3 -38 0
-4 -39 0
-5 -40 0
-6 -41 0
-7 -42 0
-1 -43 0
-2 -44 0
-3 -45 0
-4 -46 0
-5 -47 0
-6 -48 0
-7 -49 0
-1 -57 0
-2 -58 0
-3 -59 0
-4 -60 0
-5 -61 0
-6 -62 0
-7 -63 0
-1 -64 0
-2 -65 0
-3 -66 0
-4 -67 0
-5 -68 0
-6 -69 0
-7 -70 0
-1 -85 0
-2 -86 0
-3 -87 0
-4 -88 0
-5 -89 0
-6 -90 0
-7 -91 0
-1 -99 0
-2 -100 0
-3 -101 0
-4 -102 0
-5 -103 0
-6 -104 0
-7 -105 0
-1 -106 0
-2 -107 0
-3 -108 0
-4 -109 0
-5 -110 0
-6 -111 0
-7 -112 0
-1 -134 0
-2 -135 0
-3 -136 0
-4 -137 0
-5 -138 0
-6 -139 0
-7 -140 0
-1 -176 0
-2 -177 0
-3 -178 0
-4 -179 0
-5 -180 0
-6 -181 0
-7 -182 0
-1 -183 0
-2 -184 0
-3 -185 0
-4 -186 0
-5 -187 0
-6 -188 0
-7 -189 0
-1 -197 0
-2 -198 0
-3 -199 0
-4 -200 0
-5 -201 0
-6 -202 0
-7 -203 0
-1 -232 0
-2 -233 0
-3 -234 0
-4 -235 0
-5 -236 0
-6 -237 0
-7 -238 0
-1 -239 0
-2 -240 0
-3 -241 0
-4 -242 0
-5 -243 0
-6 -244 0
-7 -245 0
-8 -22 0
-9 -23 0
-10 -24 0
-11 -25 0
-12 -26 0
-13 -27 0
-14 -28 0
-8 -50 0
-9 -51 0
-10 -52 0
-11 -53 0
-12 -54 0
-13 -55 0
-14 -56 0
-8 -64 0
-9 -65 0
-10 -66 0
-11 -67 0
-12 -68 0
-13 -69 0
-14 -70 0
-8 -71 0
-9 -72 0
-10 -73 0
-11 -74 0
-12 -75 0
-13 -76 0
-14 -77 0
-8 -106 0
-9 -107 0
-10 -108 0
-11 -109 0
-12 -110 0
-13 -111 0
-14 -112 0
-8 -120 0
-9 -121 0
-10 -122 0
-11 -123 0
-12 -124 0
-13 -125 0
-14 -126 0
-8 -141 0
-9 -142 0
-10 -143 0
-11 -144 0
-12 -145 0
-13 -146 0
-14 -147 0
-8 -155 0
-9 -156 0
-10 -157 0
-11 -158 0
-12 -159 0
-13 -160 0
-14 -161 0
-8 -176 0
-9 -177 0
-10 -178 0
-11 -179 0
-12 -180 0
-13 -181 0
-14 -182 0
-8 -183 0
-9 -184 0
-10 -185 0
-11 -186 0
-12 -187 0
-13 -188 0
-14 -189 0
-8 -190 0
-9 -191 0
-10 -192 0
-11 -193 0
-12 -194 0
-13 -195 0
-14 -196 0
-8 -197 0
-9 -198 0
-10 -199 0
-11 -200 0
-12 -201 0
-13 -202 0
-14 -203 0
-8 -204 0
-9 -205 0
-10 -206 0
-11 -207 0
-12 -208 0
-13 -209 0
-14 -210 0
-8 -232 0
-9 -233 0
-10 -234 0
-11 -235 0
-12 -236 0
-13 -237 0
-14 -238 0
-8 -239 0
-9 -240 0
-10 -241 0
-11 -242 0
-12 -243 0
-13 -244 0
-14 -245 0
-15 -22 0
-16 -23 0
-17 -24 0
-18 -25 0
-19 -26 0
-20 -27 0
-21 -28 0
-15 -29 0
-16 -30 0
-17 -31 0
-18 -32 0
-19 -33 0
-20 -34 0
-21 -35 0
-15 -36 0
-16 -37 0
-17 -38 0
-18 -39 0
-19 -40 0
-20 -41 0
-21 -42 0
-15 -43 0
-16 -44 0
-17 -45 0
-18 -46 0
-19 -47 0
-20 -48 0
-21 -49 0
-15 -64 0
-16 -65 0
-17 -66 0
-18 -67 0
-19 -68 0
-20 -69 0
-21 -70 0
-15 -71 0
-16 -72 0
-17 -73 0
-18 -74 0
-19 -75 0
-20 -76 0
-21 -77 0
-15 -78 0
-16 -79 0
-17 -80 0
-18 -81 0
-19 -82 0
-20 -83 0
-21 -84 0
-15 -85 0
-16 -86 0
-17 -87 0
-18 -88 0
-19 -89 0
-20 -90 0
-21 -91 0
-15 -92 0
-16 -93 0
-17 -94 0
-18 -95 0
-19 -96 0
-20 -97 0
-21 -98 0
-15 -99 0
-16 -100 0
-17 -101 0
-18 -102 0
-19 -103 0
-20 -104 0
-21 -105 0
-15 -120 0
-16 -121 0
-17 -122 0
-18 -123 0
-19 -124 0
-20 -125 0
-21 -126 0
-15 -148 0
-16 -149 0
-17 -150 0
-18 -151 0
-19 -152 0
-20 -153 0
-21 -154 0
-15 -169 0
-16 -170 0
-17 -171 0
-18 -172 0
-19 -173 0
-20 -174 0
-21 -175 0
-15 -176 0
-16 -177 0
-17 -178 0
-18 -179 0
-19 -180 0
-20 -181 0
-21 -182 0
-15 -183 0
-16 -184 0
-17 -185 0
-18 -186 0
-19 -187 0
-20 -188 0
-21 -189 0
-15 -190 0
-16 -191 0
-17 -192 0
-18 -193 0
-19 -194 0
-20 -195 0
-21 -196 0
-15 -197 0
-16 -198 0
-17 -199 0
-18 -200 0
-19 -201 0
-20 -202 0
-21 -203 0
-15 -204 0
-16 -205 0
-17 -206 0
-18 -207 0
-19 -208 0
-20 -209 0
-21 -210 0
-15 -211 0
-16 -212 0
-17 -213 0
-18 -214 0
-19 -215 0
-20 -216 0
-21 -217 0
-15 -218 0
-16 -219 0
-17 -220 0
-18 -221 0
-19 -222 0
-20 -223 0
-21 -224 0
-22 -29 0
-23 -30 0
-24 -31 0
-25 -32 0
-26 -33 0
-27 -34 0
-28 -35 0
-22 -50 0
-23 -51 0
-24 -52 0
-25 -53 0
-26 -54 0
-27 -55 0
-28 -56 0
-22 -57 0
-23 -58 0
-24 -59 0
-25 -60 0
-26 -61 0
-27 -62 0
-28 -63 0
-22 -78 0
-23 -79 0
-24 -80 0
-25 -81 0
-26 -82 0
-27 -83 0
-28 -84 0
-22 -113 0
-23 -114 0
-24 -115 0
-25 -116 0
-26 -117 0
-27 -118 0
-28 -119 0
-22 -127 0
-23 -128 0
-24 -129 0
-25 -130 0
-26 -131 0
-27 -132 0
-28 -133 0
-22 -134 0
-23 -135 0
-24 -136 0
-25 -137 0
-26 -138 0
-27 -139 0
-28 -140 0
-22 -148 0
-23 -149 0
-24 -150 0
-25 -151 0
-26 -152 0
-27 -153 0
-28 -154 0
-22 -169 0
-23 -170 0
-24 -171 0
-25 -172 0
-26 -173 0
-27 -174 0
-28 -175 0
-22 -183 0
-23 -184 0
-24 -185 0
-25 -186 0
-26 -187 0
-27 -188 0
-28 -189 0
-22 -190 0
-23 -191 0
-24 -192 0
-25 -193 0
-26 -194 0
-27 -195 0
-28 -196 0
-22 -211 0
-23 -212 0
-24 -213 0
-25 -214 0
-26 -215 0
-27 -216 0
-28 -217 0
-22 -225 0
-23 -226 0
-24 -227 0
-25 -228 0
-26 -229 0
-27 -230 0
-28 -231 0
-22 -232 0
-23 -233 0
-24 -234 0
-25 -235 0
-26 -236 0
-27 -237 0
-28 -238 0
-22 -239 0
-23 -240 0
-24 -241 0
-25 -242 0
-26 -243 0
-27 -244 0
-28 -245 0
-29 -36 0
-30 -37 0
-31 -38 0
-32 -39 0
-33 -40 0
-34 -41 0
-35 -42 0
-29 -43 0
-30 -44 0
-31 -45 0
-32 -46 0
-33 -47 0
-34 -48 0
-35 -49 0
-29 -50 0
-30 -51 0
-31 -52 0
-32 -53 0
-33 -54 0
-34 -55 0
-35 -56 0
-29 -57 0
-30 -58 0
-31 -59 0
-32 -60 0
-33 -61 0
-34 -62 0
-35 -63 0
-29 -64 0
-30 -65 0
-31 -66 0
-32 -67 0
-33 -68 0
-34 -69 0
-35 -70 0
-29 -71 0
-30 -72 0
-31 -73 0
-32 -74 0
-33 -75 0
-34 -76 0
-35 -77 0
-29 -78 0
-30 -79 0
-31 -80 0
-32 -81 0
-33 -82 0
-34 -83 0
-35 -84 0
-29 -85 0
-30 -86 0
-31 -87 0
-32 -88 0
-33 -89 0
-34 -90 0
-35 -91 0
-29 -120 0
-30 -121 0
-31 -122 0
-32 -123 0
-33 -124 0
-34 -125 0
-35 -126 0
-29 -127 0
-30 -128 0
-31 -129 0
-32 -130 0
-33 -131 0
-34 -132 0
-35 -133 0
-29 -134 0
-30 -135 0
-31 -136 0
-32 -137 0
-33 -138 0
-34 -139 0
-35 -140 0
-29 -141 0
-30 -142 0
-31 -143 0
-32 -144 0
-33 -145 0
-34 -146 0
-35 -147 0
-29 -162 0
-30 -163 0
-31 -164 0
-32 -165 0
-33 -166 0
-34 -167 0
-35 -168 0
-29 -176 0
-30 -177 0
-31 -178 0
-32 -179 0
-33 -180 0
-34 -181 0
-35 -182 0
-29 -204 0
-30 -205 0
-31 -206 0
-32 -207 0
-33 -208 0
-34 -209 0
-35 -210 0
-29 -211 0
-30 -212 0
-31 -213 0
-32 -214 0
-33 -215 0
-34 -216 0
-35 -217 0
-29 -218 0
-30 -219 0
-31 -220 0
-32 -221 0
-33 -222 0
-34 -223 0
-35 -224 0
-29 -225 0
-30 -226 0
-31 -227 0
-32 -228 0
-33 -229 0
-34 -230 0
-35 -231 0
-29 -239 0
-30 -240 0
-31 -241 0
-32 -242 0
-33 -243 0
-34 -244 0
-35 -245 0
-36 -43 0
-37 -44 0
-38 -45 0
-39 -46 0
-40 -47 0
-41 -48 0
-42 -49 0
-36 -50 0
-37 -51 0
-38 -52 0
-39 -53 0
-40 -54 0
-41 -55 0
-42 -56 0
-36 -64 0
-37 -65 0
-38 -66 0
-39 -67 0
-40 -68 0
-41 -69 0
-42 -70 0
-36 -71 0
-37 -72 0
-38 -73 0
-39 -74 0
-40 -75 0
-41 -76 0
-42 -77 0
-36 -78 0
-37 -79 0
-38 -80 0
-39 -81 0
-40 -82 0
-41 -83 0
-42 -84 0
-36 -92 0
-37 -93 0
-38 -94 0
-39 -95 0
-40 -96 0
-41 -97 0
-42 -98 0
-36 -99 0
-37 -100 0
-38 -101 0
-39 -102 0
-40 -103 0
-41 -104 0
-42 -105 0
-36 -106 0
-37 -107 0
-38 -108 0
-39 -109 0
-40 -110 0
-41 -111 0
-42 -112 0
-36 -134 0
-37 -135 0
-38 -136 0
-39 -137 0
-40 -138 0
-41 -139 0
-42 -140 0
-36 -141 0
-37 -142 0
-38 -143 0
-39 -144 0
-40 -145 0
-41 -146 0
-42 -147 0
-36 -148 0
-37 -149 0
-38 -150 0
-39 -151 0
-40 -152 0
-41 -153 0
-42 -154 0
-36 -162 0
-37 -163 0
-38 -164 0
-39 -165 0
-40 -166 0
-41 -167 0
-42 -168 0
-36 -169 0
-37 -170 0
-38 -171 0
-39 -172 0
-40 -173 0
-41 -174 0
-42 -175 0
-36 -176 0
-37 -177 0
-38 -178 0
-39 -179 0
-40 -180 0
-41 -181 0
-42 -182 0
-36 -183 0
-37 -184 0
-38 -185 0
-39 -186 0
-40 -187 0
-41 -188 0
-42 -189 0
-36 -197 0
-37 -198 0
-38 -199 0
-39 -200 0
-40 -201 0
-41 -202 0
-42 -203 0
-36 -218 0
-37 -219 0
-38 -220 0
-39 -221 0
-40 -222 0
-41 -223 0
-42 -224 0
-36 -225 0
-37 -226 0
-38 -227 0
-39 -228 0
-40 -229 0
-41 -230 0
-42 -231 0
-36 -232 0
-37 -233 0
-38 -234 0
-39 -235 0
-40 -236 0
-41 -237 0
-42 -238 0
-43 -50 0
-44 -51 0
-45 -52 0
-46 -53 0
-47 -54 0
-48 -55 0
-49 -56 0
-43 -57 0
-44 -58 0
-45 -59 0
-46 -60 0
-47 -61 0
-48 -62 0
-49 -63 0
-43 -64 0
-44 -65 0
-45 -66 0
-46 -67 0
-47 -68 0
-48 -69 0
-49 -70 0
-43 -78 0
-44 -79 0
-45 -80 0
-46 -81 0
-47 -82 0
-48 -83 0
-49 -84 0
-43 -99 0
-44 -100 0
-45 -101 0
-46 -102 0
-47 -103 0
-48 -104 0
-49 -105 0
-43 -176 0
-44 -177 0
-45 -178 0
-46 -179 0
-47 -180 0
-48 -181 0
-49 -182 0
-43 -197 0
-44 -198 0
-45 -199 0
-46 -200 0
-47 -201 0
-48 -202 0
-49 -203 0
-43 -204 0
-44 -205 0
-45 -206 0
-46 -207 0
-47 -208 0
-48 -209 0
-49 -210 0
-43 -225 0
-44 -226 0
-45 -227 0
-46 -228 0
-47 -229 0
-48 -230 0
-49 -231 0
-43 -232 0
-44 -233 0
-45 -234 0
-46 -235 0
-47 -236 0
-48 -237 0
-49 -238 0
-50 -57 0
-51 -58 0
-52 -59 0
-53 -60 0
-54 -61 0
-55 -62 0
-56 -63 0
-50 -71 0
-51 -72 0
-52 -73 0
-53 -74 0
-54 -75 0
-55 -76 0
-56 -77 0
-50 -78 0
-51 -79 0
-52 -80 0
-53 -81 0
-54 -82 0
-55 -83 0
-56 -84 0
-50 -85 0
-51 -86 0
-52 -87 0
-53 -88 0
-54 -89 0
-55 -90 0
-56 -91 0
-50 -106 0
-51 -107 0
-52 -108 0
-53 -109 0
-54 -110 0
-55 -111 0
-56 -112 0
-50 -127 0
-51 -128 0
-52 -129 0
-53 -130 0
-54 -131 0
-55 -132 0
-56 -133 0
-50 -134 0
-51 -135 0
-52 -136 0
-53 -137 0
-54 -138 0
-55 -139 0
-56 -140 0
-50 -141 0
-51 -142 0
-52 -143 0
-53 -144 0
-54 -145 0
-55 -146 0
-56 -147 0
-50 -148 0
-51 -149 0
-52 -150 0
-53 -151 0
-54 -152 0
-55 -153 0
-56 -154 0
-50 -162 0
-51 -163 0
-52 -164 0
-53 -165 0
-54 -166 0
-55 -167 0
-56 -168 0
-50 -190 0
-51 -191 0
-52 -192 0
-53 -193 0
-54 -194 0
-55 -195 0
-56 -196 0
-50 -197 0
-51 -198 0
-52 -199 0
-53 -200 0
-54 -201 0
-55 -202 0
-56 -203 0
-50 -204 0
-51 -205 0
-52 -206 0
-53 -207 0
-54 -208 0
-55 -209 0
-56 -210 0
-50 -211 0
-51 -212 0
-52 -213 0
-53 -214 0
-54 -215 0
-55 -216 0
-56 -217 0
-50 -218 0
-51 -219 0
-52 -220 0
-53 -221 0
-54 -222 0
-55 -223 0
-56 -224 0
-50 -232 0
-51 -233 0
-52 -234 0
-53 -235 0
-54 -236 0
-55 -237 0
-56 -238 0
-57 -71 0
-58 -72 0
-59 -73 0
-60 -74 0
-61 -75 0
-62 -76 0
-63 -77 0
-57 -99 0
-58 -100 0
-59 -101 0
-60 -102 0
-61 -103 0
-62 -104 0
-63 -105 0
-57 -127 0
-58 -128 0
-59 -129 0
-60 -130 0
-61 -131 0
-62 -132 0
-63 -133 0
-57 -134 0
-58 -135 0
-59 -136 0
-60 -137 0
-61 -138 0
-62 -139 0
-63 -140 0
-57 -155 0
-58 -156 0
-59 -157 0
-60 -158 0
-61 -159 0
-62 -160 0
-63 -161 0
-57 -162 0
-58 -163 0
-59 -164 0
-60 -165 0
-61 -166 0
-62 -167 0
-63 -168 0
-57 -169 0
-58 -170 0
-59 -171 0
-60 -172 0
-61 -173 0
-62 -174 0
-63 -175 0
-57 -183 0
-58 -184 0
-59 -185 0
-60 -186 0
-61 -187 0
-62 -188 0
-63 -189 0
-57 -211 0
-58 -212 0
-59 -213 0
-60 -214 0
-61 -215 0
-62 -216 0
-63 -217 0
-57 -218 0
-58 -219 0
-59 -220 0
-60 -221 0
-61 -222 0
-62 -223 0
-63 -224 0
-64 -85 0
-65 -86 0
-66 -87 0
-67 -88 0
-68 -89 0
-69 -90 0
-70 -91 0
-64 -120 0
-65 -121 0
-66 -122 0
-67 -123 0
-68 -124 0
-69 -125 0
-70 -126 0
-64 -127 0
-65 -128 0
-66 -129 0
-67 -130 0
-68 -131 0
-69 -132 0
-70 -133 0
-64 -148 0
-65 -149 0
-66 -150 0
-67 -151 0
-68 -152 0
-69 -153 0
-70 -154 0
-64 -155 0
-65 -156 0
-66 -157 0
-67 -158 0
-68 -159 0
-69 -160 0
-70 -161 0
-64 -162 0
-65 -163 0
-66 -164 0
-67 -165 0
-68 -166 0
-69 -167 0
-70 -168 0
-64 -169 0
-65 -170 0
-66 -171 0
-67 -172 0
-68 -173 0
-69 -174 0
-70 -175 0
-64 -183 0
-65 -184 0
-66 -185 0
-67 -186 0
-68 -187 0
-69 -188 0
-70 -189 0
-64 -190 0
-65 -191 0
-66 -192 0
-67 -193 0
-68 -194 0
-69 -195 0
-70 -196 0
-64 -211 0
-65 -212 0
-66 -213 0
-67 -214 0
-68 -215 0
-69 -216 0
-70 -217 0
-64 -225 0
-65 -226 0
-66 -227 0
-67 -228 0
-68 -229 0
-69 -230 0
-70 -231 0
-64 -239 0
-65 -240 0
-66 -241 0
-67 -242 0
-68 -243 0
-69 -244 0
-70 -245 0
-71 -85 0
-72 -86 0
-73 -87 0
-74 -88 0
-75 -89 0
-76 -90 0
-77 -91 0
-71 -99 0
-72 -100 0
-73 -101 0
-74 -102 0
-75 -103 0
-76 -104 0
-77 -105 0
-71 -113 0
-72 -114 0
-73 -115 0
-74 -116 0
-75 -117 0
-76 -118 0
-77 -119 0
-71 -120 0
-72 -121 0
-73 -122 0
-74 -123 0
-75 -124 0
-76 -125 0
-77 -126 0
-71 -127 0
-72 -128 0
-73 -129 0
-74 -130 0
-75 -131 0
-76 -132 0
-77 -133 0
-71 -134 0
-72 -135 0
-73 -136 0
-74 -137 0
-75 -138 0
-76 -139 0
-77 -140 0
-71 -141 0
-72 -142 0
-73 -143 0
-74 -144 0
-75 -145 0
-76 -146 0
-77 -147 0
-71 -148 0
-72 -149 0
-73 -150 0
-74 -151 0
-75 -152 0
-76 -153 0
-77 -154 0
-71 -162 0
-72 -163 0
-73 -164 0
-74 -165 0
-75 -166 0
-76 -167 0
-77 -168 0
-71 -169 0
-72 -170 0
-73 -171 0
-74 -172 0
-75 -173 0
-76 -174 0
-77 -175 0
-71 -190 0
-72 -191 0
-73 -192 0
-74 -193 0
-75 -194 0
-76 -195 0
-77 -196 0
-71 -197 0
-72 -198 0
-73 -199 0
-74 -200 0
-75 -201 0
-76 -202 0
-77 -203 0
-71 -211 0
-72 -212 0
-73 -213 0
-74 -214 0
-75 -215 0
-76 -216 0
-77 -217 0
-71 -239 0
-72 -240 0
-73 -241 0
-74 -242 0
-75 -243 0
-76 -244 0
-77 -245 0
-78 -85 0
-79 -86 0
-80 -87 0
-81 -88 0
-82 -89 0
-83 -90 0
-84 -91 0
-78 -99 0
-79 -100 0
-80 -101 0
-81 -102 0
-82 -103 0
-83 -104 0
-84 -105 0
-78 -127 0
-79 -128 0
-80 -129 0
-81 -130 0
-82 -131 0
-83 -132 0
-84 -133 0
-78 -169 0
-79 -170 0
-80 -171 0
-81 -172 0
-82 -173 0
-83 -174 0
-84 -175 0
-78 -190 0
-79 -191 0
-80 -192 0
-81 -193 0
-82 -194 0
-83 -195 0
-84 -196 0
-78 -197 0
-79 -198 0
-80 -199 0
-81 -200 0
-82 -201 0
-83 -202 0
-84 -203 0
-78 -218 0
-79 -219 0
-80 -220 0
-81 -221 0
-82 -222 0
-83 -223 0
-84 -224 0
-85 -99 0
-86 -100 0
-87 -101 0
-88 -102 0
-89 -103 0
-90 -104 0
-91 -105 0
-85 -106 0
-86 -107 0
-87 -108 0
-88 -109 0
-89 -110 0
-90 -111 0
-91 -112 0
-85 -113 0
-86 -114 0
-87 -115 0
-88 -116 0
-89 -117 0
-90 -118 0
-91 -119 0
-85 -120 0
-86 -121 0
-87 -122 0
-88 -123 0
-89 -124 0
-90 -125 0
-91 -126 0
-85 -134 0
-86 -135 0
-87 -136 0
-88 -137 0
-89 -138 0
-90 -139 0
-91 -140 0
-85 -141 0
-86 -142 0
-87 -143 0
-88 -144 0
-89 -145 0
-90 -146 0
-91 -147 0
-85 -148 0
-86 -149 0
-87 -150 0
-88 -151 0
-89 -152 0
-90 -153 0
-91 -154 0
-85 -162 0
-86 -163 0
-87 -164 0
-88 -165 0
-89 -166 0
-90 -167 0
-91 -168 0
-85 -183 0
-86 -184 0
-87 -185 0
-88 -186 0
-89 -187 0
-90 -188 0
-91 -189 0
-85 -197 0
-86 -198 0
-87 -199 0
-88 -200 0
-89 -201 0
-90 -202 0
-91 -203 0
-85 -218 0
-86 -219 0
-87 -220 0
-88 -221 0
-89 -222 0
-90 -223 0
-91 -224 0
-85 -232 0
-86 -233 0
-87 -234 0
-88 -235 0
-89 -236 0
-90 -237 0
-91 -238 0
-85 -239 0
-86 -240 0
-87 -241 0
-88 -242 0
-89 -243 0
-90 -244 0
-91 -245 0
-92 -106 0
-93 -107 0
-94 -108 0
-95 -109 0
-96 -110 0
-97 -111 0
-98 -112 0
-92 -127 0
-93 -128 0
-94 -129 0
-95 -130 0
-96 -131 0
-97 -132 0
-98 -133 0
-92 -134 0
-93 -135 0
-94 -136 0
-95 -137 0
-96 -138 0
-97 -139 0
-98 -140 0
-92 -141 0
-93 -142 0
-94 -143 0
-95 -144 0
-96 -145 0
-97 -146 0
-98 -147 0
-92 -169 0
-93 -170 0
-94 -171 0
-95 -172 0
-96 -173 0
-97 -174 0
-98 -175 0
-92 -176 0
-93 -177 0
-94 -178 0
-95 -179 0
-96 -180 0
-97 -181 0
-98 -182 0
-92 -183 0
-93 -184 0
-94 -185 0
-95 -186 0
-96 -187 0
-97 -188 0
-98 -189 0
-92 -190 0
-93 -191 0
-94 -192 0
-95 -193 0
-96 -194 0
-97 -195 0
-98 -196 0
-92 -197 0
-93 -198 0
-94 -199 0
-95 -200 0
-96 -201 0
-97 -202 0
-98 -203 0
-92 -225 0
-93 -226 0
-94 -227 0
-95 -228 0
-96 -229 0
-97 -230 0
-98 -231 0
-99 -134 0
-100 -135 0
-101 -136 0
-102 -137 0
-103 -138 0
-104 -139 0
-105 -140 0
-99 -141 0
-100 -142 0
-101 -143 0
-102 -144 0
-103 -145 0
-104 -146 0
-105 -147 0
-99 -148 0
-100 -149 0
-101 -150 0
-102 -151 0
-103 -152 0
-104 -153 0
-105 -154 0
-99 -162 0
-100 -163 0
-101 -164 0
-102 -165 0
-103 -166 0
-104 -167 0
-105 -168 0
-99 -183 0
-100 -184 0
-101 -185 0
-102 -186 0
-103 -187 0
-104 -188 0
-105 -189 0
-99 -204 0
-100 -205 0
-101 -206 0
-102 -207 0
-103 -208 0
-104 -209 0
-105 -210 0
-99 -211 0
-100 -212 0
-101 -213 0
-102 -214 0
-103 -215 0
-104 -216 0
-105 -217 0
-99 -225 0
-100 -226 0
-101 -227 0
-102 -228 0
-103 -229 0
-104 -230 0
-105 -231 0
-99 -232 0
-100 -233 0
-101 -234 0
-102 -235 0
-103 -236 0
-104 -237 0
-105 -238 0
-106 -113 0
-107 -114 0
-108 -115 0
-109 -116 0
-110 -117 0
-111 -118 0
-112 -119 0
-106 -120 0
-107 -121 0
-108 -122 0
-109 -123 0
-110 -124 0
-111 -125 0
-112 -126 0
-106 -127 0
-107 -128 0
-108 -129 0
-109 -130 0
-110 -131 0
-111 -132 0
-112 -133 0
-106 -141 0
-107 -142 0
-108 -143 0
-109 -144 0
-110 -145 0
-111 -146 0
-112 -147 0
-106 -155 0
-107 -156 0
-108 -157 0
-109 -158 0
-110 -159 0
-111 -160 0
-112 -161 0
-106 -183 0
-107 -184 0
-108 -185 0
-109 -186 0
-110 -187 0
-111 -188 0
-112 -189 0
-106 -190 0
-107 -191 0
-108 -192 0
-109 -193 0
-110 -194 0
-111 -195 0
-112 -196 0
-106 -211 0
-107 -212 0
-108 -213 0
-109 -214 0
-110 -215 0
-111 -216 0
-112 -217 0
-106 -218 0
-107 -219 0
-108 -220 0
-109 -221 0
-110 -222 0
-111 -223 0
-112 -224 0
-106 -225 0
-107 -226 0
-108 -227 0
-109 -228 0
-110 -229 0
-111 -230 0
-112 -231 0
-106 -232 0
-107 -233 0
-108 -234 0
-109 -235 0
-110 -236 0
-111 -237 0
-112 -238 0
-106 -239 0
-107 -240 0
-108 -241 0
-109 -242 0
-110 -243 0
-111 -244 0
-112 -245 0
-113 -155 0
-114 -156 0
-115 -157 0
-116 -158 0
-117 -159 0
-118 -160 0
-119 -161 0
-113 -162 0
-114 -163 0
-115 -164 0
-116 -165 0
-117 -166 0
-118 -167 0
-119 -168 0
-113 -176 0
-114 -177 0
-115 -178 0
-116 -179 0
-117 -180 0
-118 -181 0
-119 -182 0
-113 -183 0
-114 -184 0
-115 -185 0
-116 -186 0
-117 -187 0
-118 -188 0
-119 -189 0
-113 -190 0
-114 -191 0
-115 -192 0
-116 -193 0
-117 -194 0
-118 -195 0
-119 -196 0
-113 -197 0
-114 -198 0
-115 -199 0
-116 -200 0
-117 -201 0
-118 -202 0
-119 -203 0
-113 -211 0
-114 -212 0
-115 -213 0
-116 -214 0
-117 -215 0
-118 -216 0
-119 -217 0
-113 -218 0
-114 -219 0
-115 -220 0
-116 -221 0
-117 -222 0
-118 -223 0
-119 -224 0
-113 -232 0
-114 -233 0
-115 -234 0
-116 -235 0
-117 -236 0
-118 -237 0
-119 -238 0
-120 -127 0
-121 -128 0
-122 -129 0
-123 -130 0
-124 -131 0
-125 -132 0
-126 -133 0
-120 -162 0
-121 -163 0
-122 -164 0
-123 -165 0
-124 -166 0
-125 -167 0
-126 -168 0
-120 -176 0
-121 -177 0
-122 -178 0
-123 -179 0
-124 -180 0
-125 -181 0
-126 -182 0
-120 -225 0
-121 -226 0
-122 -227 0
-123 -228 0
-124 -229 0
-125 -230 0
-126 -231 0
-120 -232 0
-121 -233 0
-122 -234 0
-123 -235 0
-124 -236 0
-125 -237 0
-126 -238 0
-120 -239 0
-121 -240 0
-122 -241 0
-123 -242 0
-124 -243 0
-125 -244 0
-126 -245 0
-127 -134 0
-128 -135 0
-129 -136 0
-130 -137 0
-131 -138 0
-132 -139 0
-133 -140 0
-127 -155 0
-128 -156 0
-129 -157 0
-130 -158 0
-131 -159 0
-132 -160 0
-133 -161 0
-127 -169 0
-128 -170 0
-129 -171 0
-130 -172 0
-131 -173 0
-132 -174 0
-133 -175 0
-127 -197 0
-128 -198 0
-129 -199 0
-130 -200 0
-131 -201 0
-132 -202 0
-133 -203 0
-127 -211 0
-128 -212 0
-129 -213 0
-130 -214 0
-131 -215 0
-132 -216 0
-133 -217 0
-127 -218 0
-128 -219 0
-129 -220 0
-130 -221 0
-131 -222 0
-132 -223 0
-133 -224 0
-127 -239 0
-128 -240 0
-129 -241 0
-130 -242 0
-131 -243 0
-132 -244 0
-133 -245 0
-134 -155 0
-135 -156 0
-136 -157 0
-137 -158 0
-138 -159 0
-139 -160 0
-140 -161 0
-134 -176 0
-135 -177 0
-136 -178 0
-137 -179 0
-138 -180 0
-139 -181 0
-140 -182 0
-134 -197 0
-135 -198 0
-136 -199 0
-137 -200 0
-138 -201 0
-139 -202 0
-140 -203 0
-134 -204 0
-135 -205 0
-136 -206 0
-137 -207 0
-138 -208 0
-139 -209 0
-140 -210 0
-134 -211 0
-135 -212 0
-136 -213 0
-137 -214 0
-138 -215 0
-139 -216 0
-140 -217 0
-134 -225 0
-135 -226 0
-136 -227 0
-137 -228 0
-138 -229 0
-139 -230 0
-140 -231 0
-134 -232 0
-135 -233 0
-136 -234 0
-137 -235 0
-138 -236 0
-139 -237 0
-140 -238 0
-134 -239 0
-135 -240 0
-136 -241 0
-137 -242 0
-138 -243 0
-139 -244 0
-140 -245 0
-141 -169 0
-142 -170 0
-143 -171 0
-144 -172 0
-145 -173 0
-146 -174 0
-147 -175 0
-141 -190 0
-142 -191 0
-143 -192 0
-144 -193 0
-145 -194 0
-146 -195 0
-147 -196 0
-141 -197 0
-142 -198 0
-143 -199 0
-144 -200 0
-145 -201 0
-146 -202 0
-147 -203 0
-141 -204 0
-142 -205 0
-143 -206 0
-144 -207 0
-145 -208 0
-146 -209 0
-147 -210 0
-141 -218 0
-142 -219 0
-143 -220 0
-144 -221 0
-145 -222 0
-146 -223 0
-147 -224 0
-148 -155 0
-149 -156 0
-150 -157 0
-151 -158 0
-152 -159 0
-153 -160 0
-154 -161 0
-148 -190 0
-149 -191 0
-150 -192 0
-151 -193 0
-152 -194 0
-153 -195 0
-154 -196 0
-148 -197 0
-149 -198 0
-150 -199 0
-151 -200 0
-152 -201 0
-153 -202 0
-154 -203 0
-148 -204 0
-149 -205 0
-150 -206 0
-151 -207 0
-152 -208 0
-153 -209 0
-154 -210 0
-148 -211 0
-149 -212 0
-150 -213 0
-151 -214 0
-152 -215 0
-153 -216 0
-154 -217 0
-148 -218 0
-149 -219 0
-150 -220 0
-151 -221 0
-152 -222 0
-153 -223 0
-154 -224 0
-155 -162 0
-156 -163 0
-157 -164 0
-158 -165 0
-159 -166 0
-160 -167 0
-161 -168 0
-155 -176 0
-156 -177 0
-157 -178 0
-158 -179 0
-159 -180 0
-160 -181 0
-161 -182 0
-155 -183 0
-156 -184 0
-157 -185 0
-158 -186 0
-159 -187 0
-160 -188 0
-161 -189 0
-155 -211 0
-156 -212 0
-157 -213 0
-158 -214 0
-159 -215 0
-160 -216 0
-161 -217 0
-155 -218 0
-156 -219 0
-157 -220 0
-158 -221 0
-159 -222 0
-160 -223 0
-161 -224 0
-155 -225 0
-156 -226 0
-157 -227 0
-158 -228 0
-159 -229 0
-160 -230 0
-161 -231 0
-155 -232 0
-156 -233 0
-157 -234 0
-158 -235 0
-159 -236 0
-160 -237 0
-161 -238 0
-162 -169 0
-163 -170 0
-164 -171 0
-165 -172 0
-166 -173 0
-167 -174 0
-168 -175 0
-162 -176 0
-163 -177 0
-164 -178 0
-165 -179 0
-166 -180 0
-167 -181 0
-168 -182 0
-162 -197 0
-163 -198 0
-164 -199 0
-165 -200 0
-166 -201 0
-167 -202 0
-168 -203 0
-162 -218 0
-163 -219 0
-164 -220 0
-165 -221 0
-166 -222 0
-167 -223 0
-168 -224 0
-162 -232 0
-163 -233 0
-164 -234 0
-165 -235 0
-166 -236 0
-167 -237 0
-168 -238 0
-169 -176 0
-170 -177 0
-171 -178 0
-172 -179 0
-173 -180 0
-174 -181 0
-175 -182 0
-169 -197 0
-170 -198 0
-171 -199 0
-172 -200 0
-173 -201 0
-174 -202 0
-175 -203 0
-169 -204 0
-170 -205 0
-171 -206 0
-172 -207 0
-173 -208 0
-174 -209 0
-175 -210 0
-169 -218 0
-170 -219 0
-171 -220 0
-172 -221 0
-173 -222 0
-174 -223 0
-175 -224 0
-169 -225 0
-170 -226 0
-171 -227 0
-172 -228 0
-173 -229 0
-174 -230 0
-175 -231 0
-169 -232 0
-170 -233 0
-171 -234 0
-172 -235 0
-173 -236 0
-174 -237 0
-175 -238 0
-176 -190 0
-177 -191 0
-178 -192 0
-179 -193 0
-180 -194 0
-181 -195 0
-182 -196 0
-176 -218 0
-177 -219 0
-178 -220 0
-179 -221 0
-180 -222 0
-181 -223 0
-182 -224 0
-176 -225 0
-177 -226 0
-178 -227 0
-179 -228 0
-180 -229 0
-181 -230 0
-182 -231 0
-176 -232 0
-177 -233 0
-178 -234 0
-179 -235 0
-180 -236 0
-181 -237 0
-182 -238 0
-183 -197 0
-184 -198 0
-185 -199 0
-186 -200 0
-187 -201 0
-188 -202 0
-189 -203 0
-183 -211 0
-184 -212 0
-185 -213 0
-186 -214 0
-187 -215 0
-188 -216 0
-189 -217 0
-183 -218 0
-184 -219 0
-185 -220 0
-186 -221 0
-187 -222 0
-188 -223 0
-189 -224 0
-183 -225 0
-184 -226 0
-185 -227 0
-186 -228 0
-187 -229 0
-188 -230 0
-189 -231 0
-183 -232 0
-184 -233 0
-185 -234 0
-186 -235 0
-187 -236 0
-188 -237 0
-189 -238 0
-190 -204 0
-191 -205 0
-192 -206 0
-193 -207 0
-194 -208 0
-195 -209 0
-196 -210 0
-190 -218 0
-191 -219 0
-192 -220 0
-193 -221 0
-194 -222 0
-195 -223 0
-196 -224 0
-190 -225 0
-191 -226 0
-192 -227 0
-193 -228 0
-194 -229 0
-195 -230 0
-196 -231 0
-197 -211 0
-198 -212 0
-199 -213 0
-200 -214 0
-201 -215 0
-202 -216 0
-203 -217 0
-197 -218 0
-198 -219 0
-199 -220 0
-200 -221 0
-201 -222 0
-202 -223 0
-203 -224 0
-197 -225 0
-198 -226 0
-199 -227 0
-200 -228 0
-201 -229 0
-202 -230 0
-203 -231 0
-197 -239 0
-198 -240 0
-199 -241 0
-200 -242 0
-201 -243 0
-202 -244 0
-203 -245 0
-204 -218 0
-205 -219 0
-206 -220 0
-207 -221 0
-208 -222 0
-209 -223 0
-210 -224 0
-204 -225 0
-205 -226 0
-206 -227 0
-207 -228 0
-208 -229 0
-209 -230 0
-210 -231 0
-204 -239 0
-205 -240 0
-206 -241 0
-207 -242 0
-208 -243 0
-209 -244 0
-210 -245 0
-211 -225 0
-212 -226 0
-213 -227 0
-214 -228 0
-215 -229 0
-216 -230 0
-217 -231 0
-211 -232 0
-212 -233 0
-213 -234 0
-214 -235 0
-215 -236 0
-216 -237 0
-217 -238 0
-211 -239 0
-212 -240 0
-213 -241 0
-214 -242 0
-215 -243 0
-216 -244 0
-217 -245 0
-218 -239 0
-219 -240 0
-220 -241 0
-221 -242 0
-222 -243 0
-223 -244 0
-224 -245 0
-225 -232 0
-226 -233 0
-227 -234 0
-228 -235 0
-229 -236 0
-230 -237 0
-231 -238 0
-232 -239 0
-233 -240 0
-234 -241 0
-235 -242 0
-236 -243 0
-237 -244 0
-238 -245 0
